NAME : TSP13
TYPE : TSP
DIMENSION : 13
EDGE_WEIGHT_TYPE : EUC_2D
NODE_COORD_SECTION
1 10 560
2 136 500
3 171 139
4 308 526
5 317 23
6 339 35
7 427 32
8 520 467
9 524 200
10 531 127
11 532 286
12 535 70
13 538 334
EOF
